10	5
0	1	1
1	1	3
2	2	4	8
3	1	5
4	1	7
5	2	9	10
6	1	2
7	1	11
8	1	11
9	1	11
10	1	11
11	0
0	0	0	0	0	0	0
1	10	4	2	3	3	1
2	2	3	4	1	1	4
3	4	2	0	0	0	3
4	1	0	2	5	0	4
5	6	4	0	2	1	4
6	10	0	0	0	3	0
7	6	5	4	3	3	3
8	5	5	1	4	4	2
9	2	2	4	0	2	0
10	9	2	3	2	1	2
11	0	0	0	0	0	0
6	6	7	6	6
